p cnf 895 2753
-1 -3 51 0
1 -3 -51 0
-1 3 -51 0
1 3 51 0
-6 -8 52 0
6 -8 -52 0
-6 8 -52 0
6 8 52 0
12 13 53 0
-12 13 -53 0
12 -13 -53 0
-12 -13 53 0
-15 -16 54 0
15 -16 -54 0
-15 16 -54 0
15 16 54 0
-18 19 55 0
18 19 -55 0
-18 -19 -55 0
18 -19 55 0
20 22 56 0
-20 22 -56 0
20 -22 -56 0
-20 -22 56 0
-23 25 57 0
23 25 -57 0
-23 -25 -57 0
23 -25 57 0
29 31 58 0
-29 31 -58 0
29 -31 -58 0
-29 -31 58 0
-33 34 59 0
33 34 -59 0
-33 -34 -59 0
33 -34 59 0
-35 -36 60 0
35 -36 -60 0
-35 36 -60 0
35 36 60 0
-39 -43 61 0
39 -43 -61 0
-39 43 -61 0
39 43 61 0
-45 -46 62 0
45 -46 -62 0
-45 46 -62 0
45 46 62 0
50 -51 63 0
-50 -51 -63 0
50 51 -63 0
-50 51 63 0
52 -53 64 0
-52 -53 -64 0
52 53 -64 0
-52 53 64 0
54 -55 65 0
-54 -55 -65 0
54 55 -65 0
-54 55 65 0
56 -57 66 0
-56 -57 -66 0
56 57 -66 0
-56 57 66 0
58 -59 67 0
-58 -59 -67 0
58 59 -67 0
-58 59 67 0
60 -61 68 0
-60 -61 -68 0
60 61 -68 0
-60 61 68 0
62 -63 69 0
-62 -63 -69 0
62 63 -69 0
-62 63 69 0
64 -65 70 0
-64 -65 -70 0
64 65 -70 0
-64 65 70 0
66 -67 71 0
-66 -67 -71 0
66 67 -71 0
-66 67 71 0
68 -69 72 0
-68 -69 -72 0
68 69 -72 0
-68 69 72 0
70 -71 73 0
-70 -71 -73 0
70 71 -73 0
-70 71 73 0
72 73 0
-72 -73 0
-1 -2 74 0
1 -2 -74 0
-1 2 -74 0
1 2 74 0
3 -4 75 0
-3 -4 -75 0
3 4 -75 0
-3 4 75 0
-5 -8 76 0
5 -8 -76 0
-5 8 -76 0
5 8 76 0
9 -14 77 0
-9 -14 -77 0
9 14 -77 0
-9 14 77 0
-15 -17 78 0
15 -17 -78 0
-15 17 -78 0
15 17 78 0
18 19 79 0
-18 19 -79 0
18 -19 -79 0
-18 -19 79 0
20 22 80 0
-20 22 -80 0
20 -22 -80 0
-20 -22 80 0
-27 30 81 0
27 30 -81 0
-27 -30 -81 0
27 -30 81 0
32 -33 82 0
-32 -33 -82 0
32 33 -82 0
-32 33 82 0
35 -36 83 0
-35 -36 -83 0
35 36 -83 0
-35 36 83 0
-39 40 84 0
39 40 -84 0
-39 -40 -84 0
39 -40 84 0
-41 -42 85 0
41 -42 -85 0
-41 42 -85 0
41 42 85 0
-45 -46 86 0
45 -46 -86 0
-45 46 -86 0
45 46 86 0
73 -74 87 0
-73 -74 -87 0
73 74 -87 0
-73 74 87 0
75 -76 88 0
-75 -76 -88 0
75 76 -88 0
-75 76 88 0
77 -78 89 0
-77 -78 -89 0
77 78 -89 0
-77 78 89 0
79 -80 90 0
-79 -80 -90 0
79 80 -90 0
-79 80 90 0
81 -82 91 0
-81 -82 -91 0
81 82 -91 0
-81 82 91 0
83 -84 92 0
-83 -84 -92 0
83 84 -92 0
-83 84 92 0
85 -86 93 0
-85 -86 -93 0
85 86 -93 0
-85 86 93 0
87 -88 94 0
-87 -88 -94 0
87 88 -94 0
-87 88 94 0
89 -90 95 0
-89 -90 -95 0
89 90 -95 0
-89 90 95 0
91 -92 96 0
-91 -92 -96 0
91 92 -96 0
-91 92 96 0
93 -94 97 0
-93 -94 -97 0
93 94 -97 0
-93 94 97 0
95 -96 98 0
-95 -96 -98 0
95 96 -98 0
-95 96 98 0
97 98 0
-97 -98 0
-4 -7 99 0
4 -7 -99 0
-4 7 -99 0
4 7 99 0
-8 -9 100 0
8 -9 -100 0
-8 9 -100 0
8 9 100 0
-11 -14 101 0
11 -14 -101 0
-11 14 -101 0
11 14 101 0
-15 16 102 0
15 16 -102 0
-15 -16 -102 0
15 -16 102 0
17 -19 103 0
-17 -19 -103 0
17 19 -103 0
-17 19 103 0
-24 -27 104 0
24 -27 -104 0
-24 27 -104 0
24 27 104 0
-28 30 105 0
28 30 -105 0
-28 -30 -105 0
28 -30 105 0
-34 37 106 0
34 37 -106 0
-34 -37 -106 0
34 -37 106 0
-39 40 107 0
39 40 -107 0
-39 -40 -107 0
39 -40 107 0
41 44 108 0
-41 44 -108 0
41 -44 -108 0
-41 -44 108 0
98 -99 109 0
-98 -99 -109 0
98 99 -109 0
-98 99 109 0
100 -101 110 0
-100 -101 -110 0
100 101 -110 0
-100 101 110 0
102 -103 111 0
-102 -103 -111 0
102 103 -111 0
-102 103 111 0
104 -105 112 0
-104 -105 -112 0
104 105 -112 0
-104 105 112 0
106 -107 113 0
-106 -107 -113 0
106 107 -113 0
-106 107 113 0
108 -109 114 0
-108 -109 -114 0
108 109 -114 0
-108 109 114 0
110 -111 115 0
-110 -111 -115 0
110 111 -115 0
-110 111 115 0
112 -113 116 0
-112 -113 -116 0
112 113 -116 0
-112 113 116 0
-114 -115 116 0
114 -115 -116 0
-114 115 -116 0
114 115 116 0
2 3 117 0
-2 3 -117 0
2 -3 -117 0
-2 -3 117 0
-6 -8 118 0
6 -8 -118 0
-6 8 -118 0
6 8 118 0
-9 -12 119 0
9 -12 -119 0
-9 12 -119 0
9 12 119 0
13 -14 120 0
-13 -14 -120 0
13 14 -120 0
-13 14 120 0
15 18 121 0
-15 18 -121 0
15 -18 -121 0
-15 -18 121 0
-21 22 122 0
21 22 -122 0
-21 -22 -122 0
21 -22 122 0
-23 25 123 0
23 25 -123 0
-23 -25 -123 0
23 -25 123 0
-28 -29 124 0
28 -29 -124 0
-28 29 -124 0
28 29 124 0
-30 31 125 0
30 31 -125 0
-30 -31 -125 0
30 -31 125 0
32 -33 126 0
-32 -33 -126 0
32 33 -126 0
-32 33 126 0
34 40 127 0
-34 40 -127 0
34 -40 -127 0
-34 -40 127 0
41 -42 128 0
-41 -42 -128 0
41 42 -128 0
-41 42 128 0
-43 47 129 0
43 47 -129 0
-43 -47 -129 0
43 -47 129 0
116 -117 130 0
-116 -117 -130 0
116 117 -130 0
-116 117 130 0
118 -119 131 0
-118 -119 -131 0
118 119 -131 0
-118 119 131 0
120 -121 132 0
-120 -121 -132 0
120 121 -132 0
-120 121 132 0
122 -123 133 0
-122 -123 -133 0
122 123 -133 0
-122 123 133 0
124 -125 134 0
-124 -125 -134 0
124 125 -134 0
-124 125 134 0
126 -127 135 0
-126 -127 -135 0
126 127 -135 0
-126 127 135 0
128 -129 136 0
-128 -129 -136 0
128 129 -136 0
-128 129 136 0
130 -131 137 0
-130 -131 -137 0
130 131 -137 0
-130 131 137 0
132 -133 138 0
-132 -133 -138 0
132 133 -138 0
-132 133 138 0
134 -135 139 0
-134 -135 -139 0
134 135 -139 0
-134 135 139 0
136 -137 140 0
-136 -137 -140 0
136 137 -140 0
-136 137 140 0
138 -139 141 0
-138 -139 -141 0
138 139 -141 0
-138 139 141 0
140 141 0
-140 -141 0
-1 -3 142 0
1 -3 -142 0
-1 3 -142 0
1 3 142 0
4 -5 143 0
-4 -5 -143 0
4 5 -143 0
-4 5 143 0
7 9 144 0
-7 9 -144 0
7 -9 -144 0
-7 -9 144 0
12 -16 145 0
-12 -16 -145 0
12 16 -145 0
-12 16 145 0
-17 -18 146 0
17 -18 -146 0
-17 18 -146 0
17 18 146 0
20 21 147 0
-20 21 -147 0
20 -21 -147 0
-20 -21 147 0
-23 25 148 0
23 25 -148 0
-23 -25 -148 0
23 -25 148 0
31 32 149 0
-31 32 -149 0
31 -32 -149 0
-31 -32 149 0
33 -34 150 0
-33 -34 -150 0
33 34 -150 0
-33 34 150 0
36 -39 151 0
-36 -39 -151 0
36 39 -151 0
-36 39 151 0
40 41 152 0
-40 41 -152 0
40 -41 -152 0
-40 -41 152 0
-43 -44 153 0
43 -44 -153 0
-43 44 -153 0
43 44 153 0
-48 49 154 0
48 49 -154 0
-48 -49 -154 0
48 -49 154 0
142 -143 155 0
-142 -143 -155 0
142 143 -155 0
-142 143 155 0
144 -145 156 0
-144 -145 -156 0
144 145 -156 0
-144 145 156 0
146 -147 157 0
-146 -147 -157 0
146 147 -157 0
-146 147 157 0
148 -149 158 0
-148 -149 -158 0
148 149 -158 0
-148 149 158 0
150 -151 159 0
-150 -151 -159 0
150 151 -159 0
-150 151 159 0
152 -153 160 0
-152 -153 -160 0
152 153 -160 0
-152 153 160 0
154 -155 161 0
-154 -155 -161 0
154 155 -161 0
-154 155 161 0
156 -157 162 0
-156 -157 -162 0
156 157 -162 0
-156 157 162 0
158 -159 163 0
-158 -159 -163 0
158 159 -163 0
-158 159 163 0
160 -161 164 0
-160 -161 -164 0
160 161 -164 0
-160 161 164 0
162 -163 165 0
-162 -163 -165 0
162 163 -165 0
-162 163 165 0
164 165 0
-164 -165 0
3 -9 166 0
-3 -9 -166 0
3 9 -166 0
-3 9 166 0
-10 -11 167 0
10 -11 -167 0
-10 11 -167 0
10 11 167 0
14 -15 168 0
-14 -15 -168 0
14 15 -168 0
-14 15 168 0
-16 -17 169 0
16 -17 -169 0
-16 17 -169 0
16 17 169 0
-19 -20 170 0
19 -20 -170 0
-19 20 -170 0
19 20 170 0
21 28 171 0
-21 28 -171 0
21 -28 -171 0
-21 -28 171 0
29 34 172 0
-29 34 -172 0
29 -34 -172 0
-29 -34 172 0
-35 44 173 0
35 44 -173 0
-35 -44 -173 0
35 -44 173 0
45 -46 174 0
-45 -46 -174 0
45 46 -174 0
-45 46 174 0
-48 49 175 0
48 49 -175 0
-48 -49 -175 0
48 -49 175 0
165 -166 176 0
-165 -166 -176 0
165 166 -176 0
-165 166 176 0
167 -168 177 0
-167 -168 -177 0
167 168 -177 0
-167 168 177 0
169 -170 178 0
-169 -170 -178 0
169 170 -178 0
-169 170 178 0
171 -172 179 0
-171 -172 -179 0
171 172 -179 0
-171 172 179 0
173 -174 180 0
-173 -174 -180 0
173 174 -180 0
-173 174 180 0
175 -176 181 0
-175 -176 -181 0
175 176 -181 0
-175 176 181 0
177 -178 182 0
-177 -178 -182 0
177 178 -182 0
-177 178 182 0
179 -180 183 0
-179 -180 -183 0
179 180 -183 0
-179 180 183 0
-181 -182 183 0
181 -182 -183 0
-181 182 -183 0
181 182 183 0
5 6 184 0
-5 6 -184 0
5 -6 -184 0
-5 -6 184 0
-7 8 185 0
7 8 -185 0
-7 -8 -185 0
7 -8 185 0
9 -11 186 0
-9 -11 -186 0
9 11 -186 0
-9 11 186 0
12 13 187 0
-12 13 -187 0
12 -13 -187 0
-12 -13 187 0
14 17 188 0
-14 17 -188 0
14 -17 -188 0
-14 -17 188 0
18 -19 189 0
-18 -19 -189 0
18 19 -189 0
-18 19 189 0
20 -22 190 0
-20 -22 -190 0
20 22 -190 0
-20 22 190 0
23 -25 191 0
-23 -25 -191 0
23 25 -191 0
-23 25 191 0
26 -30 192 0
-26 -30 -192 0
26 30 -192 0
-26 30 192 0
31 -33 193 0
-31 -33 -193 0
31 33 -193 0
-31 33 193 0
-34 -35 194 0
34 -35 -194 0
-34 35 -194 0
34 35 194 0
39 40 195 0
-39 40 -195 0
39 -40 -195 0
-39 -40 195 0
41 -45 196 0
-41 -45 -196 0
41 45 -196 0
-41 45 196 0
-46 -48 197 0
46 -48 -197 0
-46 48 -197 0
46 48 197 0
183 -184 198 0
-183 -184 -198 0
183 184 -198 0
-183 184 198 0
185 -186 199 0
-185 -186 -199 0
185 186 -199 0
-185 186 199 0
187 -188 200 0
-187 -188 -200 0
187 188 -200 0
-187 188 200 0
189 -190 201 0
-189 -190 -201 0
189 190 -201 0
-189 190 201 0
191 -192 202 0
-191 -192 -202 0
191 192 -202 0
-191 192 202 0
193 -194 203 0
-193 -194 -203 0
193 194 -203 0
-193 194 203 0
195 -196 204 0
-195 -196 -204 0
195 196 -204 0
-195 196 204 0
197 -198 205 0
-197 -198 -205 0
197 198 -205 0
-197 198 205 0
199 -200 206 0
-199 -200 -206 0
199 200 -206 0
-199 200 206 0
201 -202 207 0
-201 -202 -207 0
201 202 -207 0
-201 202 207 0
203 -204 208 0
-203 -204 -208 0
203 204 -208 0
-203 204 208 0
205 -206 209 0
-205 -206 -209 0
205 206 -209 0
-205 206 209 0
207 -208 210 0
-207 -208 -210 0
207 208 -210 0
-207 208 210 0
209 210 0
-209 -210 0
1 2 211 0
-1 2 -211 0
1 -2 -211 0
-1 -2 211 0
4 -5 212 0
-4 -5 -212 0
4 5 -212 0
-4 5 212 0
9 12 213 0
-9 12 -213 0
9 -12 -213 0
-9 -12 213 0
-13 14 214 0
13 14 -214 0
-13 -14 -214 0
13 -14 214 0
15 -16 215 0
-15 -16 -215 0
15 16 -215 0
-15 16 215 0
17 -18 216 0
-17 -18 -216 0
17 18 -216 0
-17 18 216 0
21 -25 217 0
-21 -25 -217 0
21 25 -217 0
-21 25 217 0
-27 -28 218 0
27 -28 -218 0
-27 28 -218 0
27 28 218 0
30 -31 219 0
-30 -31 -219 0
30 31 -219 0
-30 31 219 0
34 -36 220 0
-34 -36 -220 0
34 36 -220 0
-34 36 220 0
37 -38 221 0
-37 -38 -221 0
37 38 -221 0
-37 38 221 0
-39 -40 222 0
39 -40 -222 0
-39 40 -222 0
39 40 222 0
42 45 223 0
-42 45 -223 0
42 -45 -223 0
-42 -45 223 0
46 -47 224 0
-46 -47 -224 0
46 47 -224 0
-46 47 224 0
48 -49 225 0
-48 -49 -225 0
48 49 -225 0
-48 49 225 0
211 -212 226 0
-211 -212 -226 0
211 212 -226 0
-211 212 226 0
213 -214 227 0
-213 -214 -227 0
213 214 -227 0
-213 214 227 0
215 -216 228 0
-215 -216 -228 0
215 216 -228 0
-215 216 228 0
217 -218 229 0
-217 -218 -229 0
217 218 -229 0
-217 218 229 0
219 -220 230 0
-219 -220 -230 0
219 220 -230 0
-219 220 230 0
221 -222 231 0
-221 -222 -231 0
221 222 -231 0
-221 222 231 0
223 -224 232 0
-223 -224 -232 0
223 224 -232 0
-223 224 232 0
225 -226 233 0
-225 -226 -233 0
225 226 -233 0
-225 226 233 0
227 -228 234 0
-227 -228 -234 0
227 228 -234 0
-227 228 234 0
229 -230 235 0
-229 -230 -235 0
229 230 -235 0
-229 230 235 0
231 -232 236 0
-231 -232 -236 0
231 232 -236 0
-231 232 236 0
233 -234 237 0
-233 -234 -237 0
233 234 -237 0
-233 234 237 0
235 -236 238 0
-235 -236 -238 0
235 236 -238 0
-235 236 238 0
237 238 0
-237 -238 0
3 -4 239 0
-3 -4 -239 0
3 4 -239 0
-3 4 239 0
-5 6 240 0
5 6 -240 0
-5 -6 -240 0
5 -6 240 0
-7 8 241 0
7 8 -241 0
-7 -8 -241 0
7 -8 241 0
11 12 242 0
-11 12 -242 0
11 -12 -242 0
-11 -12 242 0
13 14 243 0
-13 14 -243 0
13 -14 -243 0
-13 -14 243 0
-17 22 244 0
17 22 -244 0
-17 -22 -244 0
17 -22 244 0
23 24 245 0
-23 24 -245 0
23 -24 -245 0
-23 -24 245 0
-25 26 246 0
25 26 -246 0
-25 -26 -246 0
25 -26 246 0
27 28 247 0
-27 28 -247 0
27 -28 -247 0
-27 -28 247 0
29 31 248 0
-29 31 -248 0
29 -31 -248 0
-29 -31 248 0
-32 -33 249 0
32 -33 -249 0
-32 33 -249 0
32 33 249 0
-34 36 250 0
34 36 -250 0
-34 -36 -250 0
34 -36 250 0
37 38 251 0
-37 38 -251 0
37 -38 -251 0
-37 -38 251 0
39 40 252 0
-39 40 -252 0
39 -40 -252 0
-39 -40 252 0
-41 -46 253 0
41 -46 -253 0
-41 46 -253 0
41 46 253 0
47 50 254 0
-47 50 -254 0
47 -50 -254 0
-47 -50 254 0
239 -240 255 0
-239 -240 -255 0
239 240 -255 0
-239 240 255 0
241 -242 256 0
-241 -242 -256 0
241 242 -256 0
-241 242 256 0
243 -244 257 0
-243 -244 -257 0
243 244 -257 0
-243 244 257 0
245 -246 258 0
-245 -246 -258 0
245 246 -258 0
-245 246 258 0
247 -248 259 0
-247 -248 -259 0
247 248 -259 0
-247 248 259 0
249 -250 260 0
-249 -250 -260 0
249 250 -260 0
-249 250 260 0
251 -252 261 0
-251 -252 -261 0
251 252 -261 0
-251 252 261 0
253 -254 262 0
-253 -254 -262 0
253 254 -262 0
-253 254 262 0
255 -256 263 0
-255 -256 -263 0
255 256 -263 0
-255 256 263 0
257 -258 264 0
-257 -258 -264 0
257 258 -264 0
-257 258 264 0
259 -260 265 0
-259 -260 -265 0
259 260 -265 0
-259 260 265 0
261 -262 266 0
-261 -262 -266 0
261 262 -266 0
-261 262 266 0
263 -264 267 0
-263 -264 -267 0
263 264 -267 0
-263 264 267 0
265 -266 268 0
-265 -266 -268 0
265 266 -268 0
-265 266 268 0
267 268 0
-267 -268 0
-1 -2 269 0
1 -2 -269 0
-1 2 -269 0
1 2 269 0
-3 -9 270 0
3 -9 -270 0
-3 9 -270 0
3 9 270 0
13 -17 271 0
-13 -17 -271 0
13 17 -271 0
-13 17 271 0
18 21 272 0
-18 21 -272 0
18 -21 -272 0
-18 -21 272 0
24 26 273 0
-24 26 -273 0
24 -26 -273 0
-24 -26 273 0
-28 -29 274 0
28 -29 -274 0
-28 29 -274 0
28 29 274 0
30 -31 275 0
-30 -31 -275 0
30 31 -275 0
-30 31 275 0
33 -35 276 0
-33 -35 -276 0
33 35 -276 0
-33 35 276 0
-36 37 277 0
36 37 -277 0
-36 -37 -277 0
36 -37 277 0
38 39 278 0
-38 39 -278 0
38 -39 -278 0
-38 -39 278 0
40 -43 279 0
-40 -43 -279 0
40 43 -279 0
-40 43 279 0
44 45 280 0
-44 45 -280 0
44 -45 -280 0
-44 -45 280 0
48 -49 281 0
-48 -49 -281 0
48 49 -281 0
-48 49 281 0
269 -270 282 0
-269 -270 -282 0
269 270 -282 0
-269 270 282 0
271 -272 283 0
-271 -272 -283 0
271 272 -283 0
-271 272 283 0
273 -274 284 0
-273 -274 -284 0
273 274 -284 0
-273 274 284 0
275 -276 285 0
-275 -276 -285 0
275 276 -285 0
-275 276 285 0
277 -278 286 0
-277 -278 -286 0
277 278 -286 0
-277 278 286 0
279 -280 287 0
-279 -280 -287 0
279 280 -287 0
-279 280 287 0
281 -282 288 0
-281 -282 -288 0
281 282 -288 0
-281 282 288 0
283 -284 289 0
-283 -284 -289 0
283 284 -289 0
-283 284 289 0
285 -286 290 0
-285 -286 -290 0
285 286 -290 0
-285 286 290 0
287 -288 291 0
-287 -288 -291 0
287 288 -291 0
-287 288 291 0
289 -290 292 0
-289 -290 -292 0
289 290 -292 0
-289 290 292 0
291 292 0
-291 -292 0
-1 2 293 0
1 2 -293 0
-1 -2 -293 0
1 -2 293 0
7 -8 294 0
-7 -8 -294 0
7 8 -294 0
-7 8 294 0
-9 11 295 0
9 11 -295 0
-9 -11 -295 0
9 -11 295 0
14 -15 296 0
-14 -15 -296 0
14 15 -296 0
-14 15 296 0
18 19 297 0
-18 19 -297 0
18 -19 -297 0
-18 -19 297 0
21 -24 298 0
-21 -24 -298 0
21 24 -298 0
-21 24 298 0
27 -32 299 0
-27 -32 -299 0
27 32 -299 0
-27 32 299 0
-33 35 300 0
33 35 -300 0
-33 -35 -300 0
33 -35 300 0
37 -38 301 0
-37 -38 -301 0
37 38 -301 0
-37 38 301 0
42 43 302 0
-42 43 -302 0
42 -43 -302 0
-42 -43 302 0
-44 -45 303 0
44 -45 -303 0
-44 45 -303 0
44 45 303 0
-47 49 304 0
47 49 -304 0
-47 -49 -304 0
47 -49 304 0
293 -294 305 0
-293 -294 -305 0
293 294 -305 0
-293 294 305 0
295 -296 306 0
-295 -296 -306 0
295 296 -306 0
-295 296 306 0
297 -298 307 0
-297 -298 -307 0
297 298 -307 0
-297 298 307 0
299 -300 308 0
-299 -300 -308 0
299 300 -308 0
-299 300 308 0
301 -302 309 0
-301 -302 -309 0
301 302 -309 0
-301 302 309 0
303 -304 310 0
-303 -304 -310 0
303 304 -310 0
-303 304 310 0
305 -306 311 0
-305 -306 -311 0
305 306 -311 0
-305 306 311 0
307 -308 312 0
-307 -308 -312 0
307 308 -312 0
-307 308 312 0
309 -310 313 0
-309 -310 -313 0
309 310 -313 0
-309 310 313 0
-311 -312 313 0
311 -312 -313 0
-311 312 -313 0
311 312 313 0
-1 4 314 0
1 4 -314 0
-1 -4 -314 0
1 -4 314 0
5 7 315 0
-5 7 -315 0
5 -7 -315 0
-5 -7 315 0
-11 -14 316 0
11 -14 -316 0
-11 14 -316 0
11 14 316 0
15 16 317 0
-15 16 -317 0
15 -16 -317 0
-15 -16 317 0
17 22 318 0
-17 22 -318 0
17 -22 -318 0
-17 -22 318 0
24 26 319 0
-24 26 -319 0
24 -26 -319 0
-24 -26 319 0
-29 30 320 0
29 30 -320 0
-29 -30 -320 0
29 -30 320 0
31 -33 321 0
-31 -33 -321 0
31 33 -321 0
-31 33 321 0
35 36 322 0
-35 36 -322 0
35 -36 -322 0
-35 -36 322 0
-44 -47 323 0
44 -47 -323 0
-44 47 -323 0
44 47 323 0
48 -50 324 0
-48 -50 -324 0
48 50 -324 0
-48 50 324 0
314 -315 325 0
-314 -315 -325 0
314 315 -325 0
-314 315 325 0
316 -317 326 0
-316 -317 -326 0
316 317 -326 0
-316 317 326 0
318 -319 327 0
-318 -319 -327 0
318 319 -327 0
-318 319 327 0
320 -321 328 0
-320 -321 -328 0
320 321 -328 0
-320 321 328 0
322 -323 329 0
-322 -323 -329 0
322 323 -329 0
-322 323 329 0
324 -325 330 0
-324 -325 -330 0
324 325 -330 0
-324 325 330 0
326 -327 331 0
-326 -327 -331 0
326 327 -331 0
-326 327 331 0
328 -329 332 0
-328 -329 -332 0
328 329 -332 0
-328 329 332 0
-330 -331 332 0
330 -331 -332 0
-330 331 -332 0
330 331 332 0
-2 -4 333 0
2 -4 -333 0
-2 4 -333 0
2 4 333 0
5 -6 334 0
-5 -6 -334 0
5 6 -334 0
-5 6 334 0
9 -10 335 0
-9 -10 -335 0
9 10 -335 0
-9 10 335 0
11 12 336 0
-11 12 -336 0
11 -12 -336 0
-11 -12 336 0
16 22 337 0
-16 22 -337 0
16 -22 -337 0
-16 -22 337 0
24 27 338 0
-24 27 -338 0
24 -27 -338 0
-24 -27 338 0
28 -30 339 0
-28 -30 -339 0
28 30 -339 0
-28 30 339 0
-32 34 340 0
32 34 -340 0
-32 -34 -340 0
32 -34 340 0
-38 40 341 0
38 40 -341 0
-38 -40 -341 0
38 -40 341 0
43 -44 342 0
-43 -44 -342 0
43 44 -342 0
-43 44 342 0
-45 46 343 0
45 46 -343 0
-45 -46 -343 0
45 -46 343 0
332 -333 344 0
-332 -333 -344 0
332 333 -344 0
-332 333 344 0
334 -335 345 0
-334 -335 -345 0
334 335 -345 0
-334 335 345 0
336 -337 346 0
-336 -337 -346 0
336 337 -346 0
-336 337 346 0
338 -339 347 0
-338 -339 -347 0
338 339 -347 0
-338 339 347 0
340 -341 348 0
-340 -341 -348 0
340 341 -348 0
-340 341 348 0
342 -343 349 0
-342 -343 -349 0
342 343 -349 0
-342 343 349 0
344 -345 350 0
-344 -345 -350 0
344 345 -350 0
-344 345 350 0
346 -347 351 0
-346 -347 -351 0
346 347 -351 0
-346 347 351 0
348 -349 352 0
-348 -349 -352 0
348 349 -352 0
-348 349 352 0
-350 -351 352 0
350 -351 -352 0
-350 351 -352 0
350 351 352 0
1 3 353 0
-1 3 -353 0
1 -3 -353 0
-1 -3 353 0
-4 -5 354 0
4 -5 -354 0
-4 5 -354 0
4 5 354 0
7 -9 355 0
-7 -9 -355 0
7 9 -355 0
-7 9 355 0
-10 -12 356 0
10 -12 -356 0
-10 12 -356 0
10 12 356 0
-13 -14 357 0
13 -14 -357 0
-13 14 -357 0
13 14 357 0
16 -19 358 0
-16 -19 -358 0
16 19 -358 0
-16 19 358 0
22 24 359 0
-22 24 -359 0
22 -24 -359 0
-22 -24 359 0
25 -26 360 0
-25 -26 -360 0
25 26 -360 0
-25 26 360 0
32 -34 361 0
-32 -34 -361 0
32 34 -361 0
-32 34 361 0
-35 36 362 0
35 36 -362 0
-35 -36 -362 0
35 -36 362 0
38 -39 363 0
-38 -39 -363 0
38 39 -363 0
-38 39 363 0
40 42 364 0
-40 42 -364 0
40 -42 -364 0
-40 -42 364 0
43 44 365 0
-43 44 -365 0
43 -44 -365 0
-43 -44 365 0
47 49 366 0
-47 49 -366 0
47 -49 -366 0
-47 -49 366 0
352 -353 367 0
-352 -353 -367 0
352 353 -367 0
-352 353 367 0
354 -355 368 0
-354 -355 -368 0
354 355 -368 0
-354 355 368 0
356 -357 369 0
-356 -357 -369 0
356 357 -369 0
-356 357 369 0
358 -359 370 0
-358 -359 -370 0
358 359 -370 0
-358 359 370 0
360 -361 371 0
-360 -361 -371 0
360 361 -371 0
-360 361 371 0
362 -363 372 0
-362 -363 -372 0
362 363 -372 0
-362 363 372 0
364 -365 373 0
-364 -365 -373 0
364 365 -373 0
-364 365 373 0
366 -367 374 0
-366 -367 -374 0
366 367 -374 0
-366 367 374 0
368 -369 375 0
-368 -369 -375 0
368 369 -375 0
-368 369 375 0
370 -371 376 0
-370 -371 -376 0
370 371 -376 0
-370 371 376 0
372 -373 377 0
-372 -373 -377 0
372 373 -377 0
-372 373 377 0
374 -375 378 0
-374 -375 -378 0
374 375 -378 0
-374 375 378 0
376 -377 379 0
-376 -377 -379 0
376 377 -379 0
-376 377 379 0
378 379 0
-378 -379 0
-4 -5 380 0
4 -5 -380 0
-4 5 -380 0
4 5 380 0
-8 10 381 0
8 10 -381 0
-8 -10 -381 0
8 -10 381 0
11 -14 382 0
-11 -14 -382 0
11 14 -382 0
-11 14 382 0
15 17 383 0
-15 17 -383 0
15 -17 -383 0
-15 -17 383 0
18 -19 384 0
-18 -19 -384 0
18 19 -384 0
-18 19 384 0
25 -26 385 0
-25 -26 -385 0
25 26 -385 0
-25 26 385 0
-29 -30 386 0
29 -30 -386 0
-29 30 -386 0
29 30 386 0
33 35 387 0
-33 35 -387 0
33 -35 -387 0
-33 -35 387 0
-37 38 388 0
37 38 -388 0
-37 -38 -388 0
37 -38 388 0
40 41 389 0
-40 41 -389 0
40 -41 -389 0
-40 -41 389 0
43 44 390 0
-43 44 -390 0
43 -44 -390 0
-43 -44 390 0
-48 -50 391 0
48 -50 -391 0
-48 50 -391 0
48 50 391 0
380 -381 392 0
-380 -381 -392 0
380 381 -392 0
-380 381 392 0
382 -383 393 0
-382 -383 -393 0
382 383 -393 0
-382 383 393 0
384 -385 394 0
-384 -385 -394 0
384 385 -394 0
-384 385 394 0
386 -387 395 0
-386 -387 -395 0
386 387 -395 0
-386 387 395 0
388 -389 396 0
-388 -389 -396 0
388 389 -396 0
-388 389 396 0
390 -391 397 0
-390 -391 -397 0
390 391 -397 0
-390 391 397 0
392 -393 398 0
-392 -393 -398 0
392 393 -398 0
-392 393 398 0
394 -395 399 0
-394 -395 -399 0
394 395 -399 0
-394 395 399 0
396 -397 400 0
-396 -397 -400 0
396 397 -400 0
-396 397 400 0
-398 -399 400 0
398 -399 -400 0
-398 399 -400 0
398 399 400 0
5 -6 401 0
-5 -6 -401 0
5 6 -401 0
-5 6 401 0
-7 -8 402 0
7 -8 -402 0
-7 8 -402 0
7 8 402 0
-15 21 403 0
15 21 -403 0
-15 -21 -403 0
15 -21 403 0
23 24 404 0
-23 24 -404 0
23 -24 -404 0
-23 -24 404 0
-26 -27 405 0
26 -27 -405 0
-26 27 -405 0
26 27 405 0
28 29 406 0
-28 29 -406 0
28 -29 -406 0
-28 -29 406 0
-30 -31 407 0
30 -31 -407 0
-30 31 -407 0
30 31 407 0
-33 -35 408 0
33 -35 -408 0
-33 35 -408 0
33 35 408 0
-37 -38 409 0
37 -38 -409 0
-37 38 -409 0
37 38 409 0
41 -42 410 0
-41 -42 -410 0
41 42 -410 0
-41 42 410 0
-43 -45 411 0
43 -45 -411 0
-43 45 -411 0
43 45 411 0
400 -401 412 0
-400 -401 -412 0
400 401 -412 0
-400 401 412 0
402 -403 413 0
-402 -403 -413 0
402 403 -413 0
-402 403 413 0
404 -405 414 0
-404 -405 -414 0
404 405 -414 0
-404 405 414 0
406 -407 415 0
-406 -407 -415 0
406 407 -415 0
-406 407 415 0
408 -409 416 0
-408 -409 -416 0
408 409 -416 0
-408 409 416 0
410 -411 417 0
-410 -411 -417 0
410 411 -417 0
-410 411 417 0
412 -413 418 0
-412 -413 -418 0
412 413 -418 0
-412 413 418 0
414 -415 419 0
-414 -415 -419 0
414 415 -419 0
-414 415 419 0
416 -417 420 0
-416 -417 -420 0
416 417 -420 0
-416 417 420 0
-418 -419 420 0
418 -419 -420 0
-418 419 -420 0
418 419 420 0
-1 5 421 0
1 5 -421 0
-1 -5 -421 0
1 -5 421 0
-8 9 422 0
8 9 -422 0
-8 -9 -422 0
8 -9 422 0
-10 12 423 0
10 12 -423 0
-10 -12 -423 0
10 -12 423 0
15 -16 424 0
-15 -16 -424 0
15 16 -424 0
-15 16 424 0
-17 -18 425 0
17 -18 -425 0
-17 18 -425 0
17 18 425 0
-19 20 426 0
19 20 -426 0
-19 -20 -426 0
19 -20 426 0
-21 22 427 0
21 22 -427 0
-21 -22 -427 0
21 -22 427 0
23 24 428 0
-23 24 -428 0
23 -24 -428 0
-23 -24 428 0
25 27 429 0
-25 27 -429 0
25 -27 -429 0
-25 -27 429 0
-31 -32 430 0
31 -32 -430 0
-31 32 -430 0
31 32 430 0
34 37 431 0
-34 37 -431 0
34 -37 -431 0
-34 -37 431 0
39 -40 432 0
-39 -40 -432 0
39 40 -432 0
-39 40 432 0
-41 43 433 0
41 43 -433 0
-41 -43 -433 0
41 -43 433 0
45 -47 434 0
-45 -47 -434 0
45 47 -434 0
-45 47 434 0
421 -422 435 0
-421 -422 -435 0
421 422 -435 0
-421 422 435 0
423 -424 436 0
-423 -424 -436 0
423 424 -436 0
-423 424 436 0
425 -426 437 0
-425 -426 -437 0
425 426 -437 0
-425 426 437 0
427 -428 438 0
-427 -428 -438 0
427 428 -438 0
-427 428 438 0
429 -430 439 0
-429 -430 -439 0
429 430 -439 0
-429 430 439 0
431 -432 440 0
-431 -432 -440 0
431 432 -440 0
-431 432 440 0
433 -434 441 0
-433 -434 -441 0
433 434 -441 0
-433 434 441 0
435 -436 442 0
-435 -436 -442 0
435 436 -442 0
-435 436 442 0
437 -438 443 0
-437 -438 -443 0
437 438 -443 0
-437 438 443 0
439 -440 444 0
-439 -440 -444 0
439 440 -444 0
-439 440 444 0
441 -442 445 0
-441 -442 -445 0
441 442 -445 0
-441 442 445 0
443 -444 446 0
-443 -444 -446 0
443 444 -446 0
-443 444 446 0
445 446 0
-445 -446 0
1 5 447 0
-1 5 -447 0
1 -5 -447 0
-1 -5 447 0
8 -9 448 0
-8 -9 -448 0
8 9 -448 0
-8 9 448 0
11 -14 449 0
-11 -14 -449 0
11 14 -449 0
-11 14 449 0
15 -16 450 0
-15 -16 -450 0
15 16 -450 0
-15 16 450 0
22 -23 451 0
-22 -23 -451 0
22 23 -451 0
-22 23 451 0
28 30 452 0
-28 30 -452 0
28 -30 -452 0
-28 -30 452 0
-36 -38 453 0
36 -38 -453 0
-36 38 -453 0
36 38 453 0
40 45 454 0
-40 45 -454 0
40 -45 -454 0
-40 -45 454 0
46 -49 455 0
-46 -49 -455 0
46 49 -455 0
-46 49 455 0
447 -448 456 0
-447 -448 -456 0
447 448 -456 0
-447 448 456 0
449 -450 457 0
-449 -450 -457 0
449 450 -457 0
-449 450 457 0
451 -452 458 0
-451 -452 -458 0
451 452 -458 0
-451 452 458 0
453 -454 459 0
-453 -454 -459 0
453 454 -459 0
-453 454 459 0
455 -456 460 0
-455 -456 -460 0
455 456 -460 0
-455 456 460 0
457 -458 461 0
-457 -458 -461 0
457 458 -461 0
-457 458 461 0
-459 -460 461 0
459 -460 -461 0
-459 460 -461 0
459 460 461 0
1 3 462 0
-1 3 -462 0
1 -3 -462 0
-1 -3 462 0
-5 6 463 0
5 6 -463 0
-5 -6 -463 0
5 -6 463 0
7 -10 464 0
-7 -10 -464 0
7 10 -464 0
-7 10 464 0
-11 13 465 0
11 13 -465 0
-11 -13 -465 0
11 -13 465 0
14 16 466 0
-14 16 -466 0
14 -16 -466 0
-14 -16 466 0
-17 -18 467 0
17 -18 -467 0
-17 18 -467 0
17 18 467 0
-24 -25 468 0
24 -25 -468 0
-24 25 -468 0
24 25 468 0
29 31 469 0
-29 31 -469 0
29 -31 -469 0
-29 -31 469 0
-36 37 470 0
36 37 -470 0
-36 -37 -470 0
36 -37 470 0
41 42 471 0
-41 42 -471 0
41 -42 -471 0
-41 -42 471 0
-43 44 472 0
43 44 -472 0
-43 -44 -472 0
43 -44 472 0
45 46 473 0
-45 46 -473 0
45 -46 -473 0
-45 -46 473 0
47 -49 474 0
-47 -49 -474 0
47 49 -474 0
-47 49 474 0
462 -463 475 0
-462 -463 -475 0
462 463 -475 0
-462 463 475 0
464 -465 476 0
-464 -465 -476 0
464 465 -476 0
-464 465 476 0
466 -467 477 0
-466 -467 -477 0
466 467 -477 0
-466 467 477 0
468 -469 478 0
-468 -469 -478 0
468 469 -478 0
-468 469 478 0
470 -471 479 0
-470 -471 -479 0
470 471 -479 0
-470 471 479 0
472 -473 480 0
-472 -473 -480 0
472 473 -480 0
-472 473 480 0
474 -475 481 0
-474 -475 -481 0
474 475 -481 0
-474 475 481 0
476 -477 482 0
-476 -477 -482 0
476 477 -482 0
-476 477 482 0
478 -479 483 0
-478 -479 -483 0
478 479 -483 0
-478 479 483 0
480 -481 484 0
-480 -481 -484 0
480 481 -484 0
-480 481 484 0
482 -483 485 0
-482 -483 -485 0
482 483 -485 0
-482 483 485 0
484 485 0
-484 -485 0
1 -2 486 0
-1 -2 -486 0
1 2 -486 0
-1 2 486 0
3 -5 487 0
-3 -5 -487 0
3 5 -487 0
-3 5 487 0
-6 7 488 0
6 7 -488 0
-6 -7 -488 0
6 -7 488 0
-10 -12 489 0
10 -12 -489 0
-10 12 -489 0
10 12 489 0
13 15 490 0
-13 15 -490 0
13 -15 -490 0
-13 -15 490 0
-16 17 491 0
16 17 -491 0
-16 -17 -491 0
16 -17 491 0
-20 23 492 0
20 23 -492 0
-20 -23 -492 0
20 -23 492 0
-25 26 493 0
25 26 -493 0
-25 -26 -493 0
25 -26 493 0
29 -30 494 0
-29 -30 -494 0
29 30 -494 0
-29 30 494 0
32 33 495 0
-32 33 -495 0
32 -33 -495 0
-32 -33 495 0
35 -37 496 0
-35 -37 -496 0
35 37 -496 0
-35 37 496 0
-38 39 497 0
38 39 -497 0
-38 -39 -497 0
38 -39 497 0
-40 -41 498 0
40 -41 -498 0
-40 41 -498 0
40 41 498 0
43 -44 499 0
-43 -44 -499 0
43 44 -499 0
-43 44 499 0
-45 -46 500 0
45 -46 -500 0
-45 46 -500 0
45 46 500 0
-47 50 501 0
47 50 -501 0
-47 -50 -501 0
47 -50 501 0
486 -487 502 0
-486 -487 -502 0
486 487 -502 0
-486 487 502 0
488 -489 503 0
-488 -489 -503 0
488 489 -503 0
-488 489 503 0
490 -491 504 0
-490 -491 -504 0
490 491 -504 0
-490 491 504 0
492 -493 505 0
-492 -493 -505 0
492 493 -505 0
-492 493 505 0
494 -495 506 0
-494 -495 -506 0
494 495 -506 0
-494 495 506 0
496 -497 507 0
-496 -497 -507 0
496 497 -507 0
-496 497 507 0
498 -499 508 0
-498 -499 -508 0
498 499 -508 0
-498 499 508 0
500 -501 509 0
-500 -501 -509 0
500 501 -509 0
-500 501 509 0
502 -503 510 0
-502 -503 -510 0
502 503 -510 0
-502 503 510 0
504 -505 511 0
-504 -505 -511 0
504 505 -511 0
-504 505 511 0
506 -507 512 0
-506 -507 -512 0
506 507 -512 0
-506 507 512 0
508 -509 513 0
-508 -509 -513 0
508 509 -513 0
-508 509 513 0
510 -511 514 0
-510 -511 -514 0
510 511 -514 0
-510 511 514 0
512 -513 515 0
-512 -513 -515 0
512 513 -515 0
-512 513 515 0
514 515 0
-514 -515 0
-12 516 0
-24 516 0
-12 -24 517 0
-23 516 0
-12 -23 517 0
-24 -23 517 0
-12 -24 -23 518 0
-22 519 0
-21 519 0
-22 -21 520 0
-20 519 0
-22 -20 520 0
-21 -20 520 0
-22 -21 -20 521 0
-516 522 0
-517 523 0
-518 524 0
-519 522 0
-520 523 0
-521 524 0
-516 -519 523 0
-516 -520 524 0
-516 -521 525 0
-517 -519 524 0
-517 -520 525 0
-517 -521 526 0
-518 -519 525 0
-518 -520 526 0
-518 -521 527 0
-19 528 0
-18 528 0
-19 -18 529 0
-17 528 0
-19 -17 529 0
-18 -17 529 0
-19 -18 -17 530 0
-16 531 0
-15 531 0
-16 -15 532 0
-14 531 0
-16 -14 532 0
-15 -14 532 0
-16 -15 -14 533 0
-528 534 0
-529 535 0
-530 536 0
-531 534 0
-532 535 0
-533 536 0
-528 -531 535 0
-528 -532 536 0
-528 -533 537 0
-529 -531 536 0
-529 -532 537 0
-529 -533 538 0
-530 -531 537 0
-530 -532 538 0
-530 -533 539 0
-522 540 0
-524 541 0
-526 542 0
-534 540 0
-536 541 0
-538 542 0
-522 -534 541 0
-522 -536 542 0
-522 -538 543 0
-524 -534 542 0
-524 -536 543 0
-524 -538 544 0
-526 -534 543 0
-526 -536 544 0
-526 -538 545 0
-523 546 0
-525 547 0
-527 548 0
-535 546 0
-537 547 0
-539 548 0
-523 -535 547 0
-523 -537 548 0
-523 -539 549 0
-525 -535 548 0
-525 -537 549 0
-525 -539 550 0
-527 -535 549 0
-527 -537 550 0
-527 -539 551 0
-541 552 0
-546 552 0
-541 -546 553 0
-542 554 0
-547 554 0
-542 -547 555 0
-543 556 0
-548 556 0
-543 -548 557 0
-544 558 0
-549 558 0
-544 -549 559 0
-545 560 0
-550 560 0
-545 -550 561 0
-13 562 0
-25 562 0
-13 -25 563 0
-11 562 0
-13 -11 563 0
-25 -11 563 0
-13 -25 -11 564 0
-10 565 0
-9 565 0
-10 -9 566 0
-8 565 0
-10 -8 566 0
-9 -8 566 0
-10 -9 -8 567 0
-562 568 0
-563 569 0
-564 570 0
-565 568 0
-566 569 0
-567 570 0
-562 -565 569 0
-562 -566 570 0
-562 -567 571 0
-563 -565 570 0
-563 -566 571 0
-563 -567 572 0
-564 -565 571 0
-564 -566 572 0
-564 -567 573 0
-7 574 0
-6 574 0
-7 -6 575 0
-5 574 0
-7 -5 575 0
-6 -5 575 0
-7 -6 -5 576 0
-4 577 0
-3 577 0
-4 -3 578 0
-2 577 0
-4 -2 578 0
-3 -2 578 0
-4 -3 -2 579 0
-574 580 0
-575 581 0
-576 582 0
-577 580 0
-578 581 0
-579 582 0
-574 -577 581 0
-574 -578 582 0
-574 -579 583 0
-575 -577 582 0
-575 -578 583 0
-575 -579 584 0
-576 -577 583 0
-576 -578 584 0
-576 -579 585 0
-568 586 0
-570 587 0
-572 588 0
-580 586 0
-582 587 0
-584 588 0
-568 -580 587 0
-568 -582 588 0
-568 -584 589 0
-570 -580 588 0
-570 -582 589 0
-570 -584 590 0
-572 -580 589 0
-572 -582 590 0
-572 -584 591 0
-569 592 0
-571 593 0
-573 594 0
-581 592 0
-583 593 0
-585 594 0
-569 -581 593 0
-569 -583 594 0
-569 -585 595 0
-571 -581 594 0
-571 -583 595 0
-571 -585 596 0
-573 -581 595 0
-573 -583 596 0
-573 -585 597 0
-587 598 0
-592 598 0
-587 -592 599 0
-588 600 0
-593 600 0
-588 -593 601 0
-589 602 0
-594 602 0
-589 -594 603 0
-590 604 0
-595 604 0
-590 -595 605 0
-591 606 0
-596 606 0
-591 -596 607 0
-1 608 0
-37 608 0
-1 -37 609 0
-49 608 0
-1 -49 609 0
-37 -49 609 0
-1 -37 -49 610 0
-48 611 0
-47 611 0
-48 -47 612 0
-46 611 0
-48 -46 612 0
-47 -46 612 0
-48 -47 -46 613 0
-608 614 0
-609 615 0
-610 616 0
-611 614 0
-612 615 0
-613 616 0
-608 -611 615 0
-608 -612 616 0
-608 -613 617 0
-609 -611 616 0
-609 -612 617 0
-609 -613 618 0
-610 -611 617 0
-610 -612 618 0
-610 -613 619 0
-45 620 0
-44 620 0
-45 -44 621 0
-43 620 0
-45 -43 621 0
-44 -43 621 0
-45 -44 -43 622 0
-42 623 0
-41 623 0
-42 -41 624 0
-40 623 0
-42 -40 624 0
-41 -40 624 0
-42 -41 -40 625 0
-620 626 0
-621 627 0
-622 628 0
-623 626 0
-624 627 0
-625 628 0
-620 -623 627 0
-620 -624 628 0
-620 -625 629 0
-621 -623 628 0
-621 -624 629 0
-621 -625 630 0
-622 -623 629 0
-622 -624 630 0
-622 -625 631 0
-614 632 0
-616 633 0
-618 634 0
-626 632 0
-628 633 0
-630 634 0
-614 -626 633 0
-614 -628 634 0
-614 -630 635 0
-616 -626 634 0
-616 -628 635 0
-616 -630 636 0
-618 -626 635 0
-618 -628 636 0
-618 -630 637 0
-615 638 0
-617 639 0
-619 640 0
-627 638 0
-629 639 0
-631 640 0
-615 -627 639 0
-615 -629 640 0
-615 -631 641 0
-617 -627 640 0
-617 -629 641 0
-617 -631 642 0
-619 -627 641 0
-619 -629 642 0
-619 -631 643 0
-633 644 0
-638 644 0
-633 -638 645 0
-634 646 0
-639 646 0
-634 -639 647 0
-635 648 0
-640 648 0
-635 -640 649 0
-636 650 0
-641 650 0
-636 -641 651 0
-637 652 0
-642 652 0
-637 -642 653 0
-39 654 0
-38 654 0
-39 -38 655 0
-50 654 0
-39 -50 655 0
-38 -50 655 0
-39 -38 -50 656 0
-36 657 0
-35 657 0
-36 -35 658 0
-34 657 0
-36 -34 658 0
-35 -34 658 0
-36 -35 -34 659 0
-654 660 0
-655 661 0
-656 662 0
-657 660 0
-658 661 0
-659 662 0
-654 -657 661 0
-654 -658 662 0
-654 -659 663 0
-655 -657 662 0
-655 -658 663 0
-655 -659 664 0
-656 -657 663 0
-656 -658 664 0
-656 -659 665 0
-33 666 0
-32 666 0
-33 -32 667 0
-31 666 0
-33 -31 667 0
-32 -31 667 0
-33 -32 -31 668 0
-30 669 0
-29 669 0
-30 -29 670 0
-28 671 0
-27 671 0
-28 -27 672 0
-26 671 0
-28 -26 672 0
-27 -26 672 0
-28 -27 -26 673 0
-669 674 0
-670 675 0
-671 674 0
-672 675 0
-673 676 0
-669 -671 675 0
-669 -672 676 0
-669 -673 677 0
-670 -671 676 0
-670 -672 677 0
-670 -673 678 0
-666 679 0
-667 680 0
-668 681 0
-674 679 0
-675 680 0
-676 681 0
-677 682 0
-678 683 0
-666 -674 680 0
-666 -675 681 0
-666 -676 682 0
-666 -677 683 0
-666 -678 684 0
-667 -674 681 0
-667 -675 682 0
-667 -676 683 0
-667 -677 684 0
-667 -678 685 0
-668 -674 682 0
-668 -675 683 0
-668 -676 684 0
-668 -677 685 0
-668 -678 686 0
-660 687 0
-662 688 0
-664 689 0
-679 687 0
-681 688 0
-683 689 0
-685 690 0
-660 -679 688 0
-660 -681 689 0
-660 -683 690 0
-660 -685 691 0
-662 -679 689 0
-662 -681 690 0
-662 -683 691 0
-662 -685 692 0
-664 -679 690 0
-664 -681 691 0
-664 -683 692 0
-664 -685 693 0
-661 694 0
-663 695 0
-665 696 0
-680 694 0
-682 695 0
-684 696 0
-686 697 0
-661 -680 695 0
-661 -682 696 0
-661 -684 697 0
-661 -686 698 0
-663 -680 696 0
-663 -682 697 0
-663 -684 698 0
-663 -686 699 0
-665 -680 697 0
-665 -682 698 0
-665 -684 699 0
-665 -686 700 0
-688 701 0
-694 701 0
-688 -694 702 0
-689 703 0
-695 703 0
-689 -695 704 0
-690 705 0
-696 705 0
-690 -696 706 0
-691 707 0
-697 707 0
-691 -697 708 0
-692 709 0
-698 709 0
-692 -698 710 0
-693 711 0
-699 711 0
-693 -699 712 0
-632 713 0
-647 714 0
-651 715 0
-687 713 0
-704 714 0
-708 715 0
-712 716 0
-632 -687 714 0
-632 -704 715 0
-632 -708 716 0
-632 -712 717 0
-647 -687 715 0
-647 -704 716 0
-647 -708 717 0
-647 -712 718 0
-651 -687 716 0
-651 -704 717 0
-651 -708 718 0
-645 719 0
-649 720 0
-653 721 0
-702 719 0
-706 720 0
-710 721 0
-645 -702 720 0
-645 -706 721 0
-645 -710 722 0
-649 -702 721 0
-649 -706 722 0
-649 -710 723 0
-653 -702 722 0
-653 -706 723 0
-714 724 0
-719 724 0
-714 -719 725 0
-715 726 0
-720 726 0
-715 -720 727 0
-716 728 0
-721 728 0
-716 -721 729 0
-717 730 0
-722 730 0
-717 -722 731 0
-718 732 0
-723 732 0
-718 -723 733 0
-644 734 0
-648 735 0
-652 736 0
-701 734 0
-705 735 0
-709 736 0
-700 737 0
-644 -701 735 0
-644 -705 736 0
-644 -709 737 0
-644 -700 738 0
-648 -701 736 0
-648 -705 737 0
-648 -709 738 0
-648 -700 739 0
-652 -701 737 0
-652 -705 738 0
-652 -709 739 0
-646 740 0
-650 741 0
-643 742 0
-703 740 0
-707 741 0
-711 742 0
-646 -703 741 0
-646 -707 742 0
-646 -711 743 0
-650 -703 742 0
-650 -707 743 0
-650 -711 744 0
-643 -703 743 0
-643 -707 744 0
-735 745 0
-740 745 0
-735 -740 746 0
-736 747 0
-741 747 0
-736 -741 748 0
-737 749 0
-742 749 0
-737 -742 750 0
-738 751 0
-743 751 0
-738 -743 752 0
-739 753 0
-744 753 0
-724 754 0
-734 754 0
-724 -734 755 0
-725 756 0
-745 756 0
-725 -745 757 0
-726 758 0
-746 758 0
-726 -746 759 0
-727 760 0
-747 760 0
-727 -747 761 0
-728 762 0
-748 762 0
-728 -748 763 0
-729 764 0
-749 764 0
-729 -749 765 0
-730 766 0
-750 766 0
-730 -750 767 0
-731 768 0
-751 768 0
-731 -751 769 0
-732 770 0
-752 770 0
-732 -752 771 0
-733 772 0
-753 772 0
-733 -753 773 0
-586 774 0
-601 775 0
-605 776 0
-713 774 0
-757 775 0
-761 776 0
-765 777 0
-769 778 0
-773 779 0
-586 -713 775 0
-586 -757 776 0
-586 -761 777 0
-586 -765 778 0
-586 -769 779 0
-601 -713 776 0
-601 -757 777 0
-601 -761 778 0
-601 -765 779 0
-605 -713 777 0
-605 -757 778 0
-605 -761 779 0
-599 780 0
-603 781 0
-607 782 0
-755 780 0
-759 781 0
-763 782 0
-767 783 0
-771 784 0
-599 -755 781 0
-599 -759 782 0
-599 -763 783 0
-599 -767 784 0
-603 -755 782 0
-603 -759 783 0
-603 -763 784 0
-607 -755 783 0
-607 -759 784 0
-775 785 0
-780 785 0
-775 -780 786 0
-776 787 0
-781 787 0
-776 -781 788 0
-777 789 0
-782 789 0
-777 -782 790 0
-778 791 0
-783 791 0
-778 -783 792 0
-779 793 0
-784 793 0
-779 -784 794 0
-598 795 0
-602 796 0
-606 797 0
-754 795 0
-758 796 0
-762 797 0
-766 798 0
-770 799 0
-598 -754 796 0
-598 -758 797 0
-598 -762 798 0
-598 -766 799 0
-598 -770 800 0
-602 -754 797 0
-602 -758 798 0
-602 -762 799 0
-602 -766 800 0
-606 -754 798 0
-606 -758 799 0
-606 -762 800 0
-600 801 0
-604 802 0
-597 803 0
-756 801 0
-760 802 0
-764 803 0
-768 804 0
-772 805 0
-600 -756 802 0
-600 -760 803 0
-600 -764 804 0
-600 -768 805 0
-604 -756 803 0
-604 -760 804 0
-604 -764 805 0
-597 -756 804 0
-597 -760 805 0
-796 806 0
-801 806 0
-796 -801 807 0
-797 808 0
-802 808 0
-797 -802 809 0
-798 810 0
-803 810 0
-798 -803 811 0
-799 812 0
-804 812 0
-799 -804 813 0
-800 814 0
-805 814 0
-785 815 0
-795 815 0
-785 -795 816 0
-786 817 0
-806 817 0
-786 -806 818 0
-787 819 0
-807 819 0
-787 -807 820 0
-788 821 0
-808 821 0
-788 -808 822 0
-789 823 0
-809 823 0
-789 -809 824 0
-790 825 0
-810 825 0
-790 -810 826 0
-791 827 0
-811 827 0
-791 -811 828 0
-792 829 0
-812 829 0
-792 -812 830 0
-793 831 0
-813 831 0
-793 -813 832 0
-794 833 0
-814 833 0
-794 -814 834 0
-540 835 0
-555 836 0
-559 837 0
-774 835 0
-818 836 0
-822 837 0
-826 838 0
-830 839 0
-834 840 0
-540 -774 836 0
-540 -818 837 0
-540 -822 838 0
-540 -826 839 0
-540 -830 840 0
-555 -774 837 0
-555 -818 838 0
-555 -822 839 0
-555 -826 840 0
-559 -774 838 0
-559 -818 839 0
-559 -822 840 0
-553 841 0
-557 842 0
-561 843 0
-816 841 0
-820 842 0
-824 843 0
-828 844 0
-832 845 0
-553 -816 842 0
-553 -820 843 0
-553 -824 844 0
-553 -828 845 0
-557 -816 843 0
-557 -820 844 0
-557 -824 845 0
-561 -816 844 0
-561 -820 845 0
-836 846 0
-841 846 0
-836 -841 847 0
-837 848 0
-842 848 0
-837 -842 849 0
-838 850 0
-843 850 0
-838 -843 851 0
-839 852 0
-844 852 0
-839 -844 853 0
-840 854 0
-845 854 0
-840 -845 855 0
-552 856 0
-556 857 0
-560 858 0
-815 856 0
-819 857 0
-823 858 0
-827 859 0
-831 860 0
-552 -815 857 0
-552 -819 858 0
-552 -823 859 0
-552 -827 860 0
-552 -831 861 0
-556 -815 858 0
-556 -819 859 0
-556 -823 860 0
-556 -827 861 0
-560 -815 859 0
-560 -819 860 0
-560 -823 861 0
-554 862 0
-558 863 0
-551 864 0
-817 862 0
-821 863 0
-825 864 0
-829 865 0
-833 866 0
-554 -817 863 0
-554 -821 864 0
-554 -825 865 0
-554 -829 866 0
-558 -817 864 0
-558 -821 865 0
-558 -825 866 0
-551 -817 865 0
-551 -821 866 0
-857 867 0
-862 867 0
-857 -862 868 0
-858 869 0
-863 869 0
-858 -863 870 0
-859 871 0
-864 871 0
-859 -864 872 0
-860 873 0
-865 873 0
-860 -865 874 0
-861 875 0
-866 875 0
-846 876 0
-856 876 0
-846 -856 877 0
-847 878 0
-867 878 0
-847 -867 879 0
-848 880 0
-868 880 0
-848 -868 881 0
-849 882 0
-869 882 0
-849 -869 883 0
-850 884 0
-870 884 0
-850 -870 885 0
-851 886 0
-871 886 0
-851 -871 887 0
-852 888 0
-872 888 0
-852 -872 889 0
-853 890 0
-873 890 0
-853 -873 891 0
-854 892 0
-874 892 0
-854 -874 893 0
-855 894 0
-875 894 0
-855 -875 895 0
-895 0
